; redis-py :: corpus-study/repo_src/redis-py/redis/asyncio/keyspace_notifications.py :: LOCK 'AsyncClusterKeyspaceNotifications._refresh_lock' :: naive encoding (verdict: unsat)
; Generated by snf-pipeline (encoder.py) -- run with any
; SMT-LIB2-compliant solver, e.g. `z3 redis-py__corpus-study_repo_src_redis-py_redis_asyncio_keyspace_notifications.py__AsyncClusterKeyspaceNotifications._refresh_lock__naive.smt2`
; benchmark generated from python API
(set-info :status unknown)
(assert
 false)
(check-sat)
